NAME : grid
TYPE : TSP
DIMENSION : 50
EDGE_WEIGHT_TYPE : EUC_2D
NODE_COORD_SECTION
1 499985 200382
2 8427 451559
3 571707 78982
4 158989 72223
5 938097 144644
6 379301 359225
7 340207 882186
8 300971 545770
9 742682 699109
10 763447 359586
11 39904 785003
12 837387 817244
13 345953 802343
14 425246 483633
15 793030 736073
16 394611 861919
17 751770 948031
18 46184 911493
19 739834 237916
20 554254 297714
21 52782 973363
22 645564 940156
23 278463 904177
24 247649 228477
25 940547 871332
26 258092 572484
27 958702 467349
28 307084 667271
29 200380 621890
30 125738 559927
31 846442 92927
32 703697 483633
33 668638 898973
34 470099 399646
35 768460 780638
36 259286 600599
37 82067 15836
38 705237 152532
39 675687 862173
40 388968 572755
41 49636 882480
42 498975 793608
43 65031 909988
44 90679 286396
45 425246 782378
46 703697 782378
47 201377 122053
48 21748 984035
49 808378 66756
50 177274 423625
EOF
